c User generated cnf file
p cnf 10 48
4 -2 1 0 
4 7 -8 0 
7 -4 10 0 
3 -4 2 0 
1 -8 1 0 
-6 6 2 0 
-6 2 3 0 
-8 1 2 0 
9 -4 1 0 
-5 2 10 0 
9 -9 6 0 
4 9 -7 0 
2 -8 1 0 
-10 1 4 0 
10 -8 9 0 
-6 9 1 0 
4 -7 3 0 
8 1 -9 0 
4 2 -3 0 
10 1 -9 0 
5 2 -7 0 
-3 3 9 0 
-2 9 10 0 
8 -8 3 0 
4 3 -3 0 
8 -5 3 0 
10 4 -6 0 
2 2 -9 0 
-8 7 9 0 
4 -8 8 0 
3 -5 7 0 
1 8 -8 0 
-10 2 4 0 
4 -7 6 0 
3 2 -9 0 
4 -1 10 0 
4 8 -1 0 
9 6 -7 0 
5 7 -3 0 
5 -8 6 0 
4 -8 10 0 
8 -4 4 0 
5 3 -3 0 
6 3 -8 0 
-5 8 10 0 
6 5 -5 0 
-3 2 1 0 
3 1 -1 0 
